21° run output:
{
    "Function": "kroA300.tsp",
    "Problem dimension": [
        65,
        245,
        73,
        93,
        201,
        148,
        28,
        11,
        158,
        116,
        210,
        1,
        43,
        196,
        230,
        36,
        44,
        64,
        264,
        186,
        176,
        131,
        107,
        96,
        178,
        169,
        142,
        202,
        146,
        78,
        84,
        17,
        48,
        39,
        190,
        54,
        236,
        128,
        254,
        166,
        67,
        278,
        30,
        267,
        112,
        175,
        85,
        260,
        174,
        118,
        256,
        12,
        211,
        49,
        82,
        277,
        184,
        255,
        69,
        253,
        0,
        122,
        259,
        183,
        295,
        189,
        18,
        209,
        94,
        70,
        71,
        7,
        136,
        151,
        154,
        119,
        171,
        173,
        297,
        268,
        14,
        159,
        231,
        41,
        74,
        241,
        193,
        117,
        62,
        123,
        126,
        206,
        200,
        212,
        168,
        235,
        199,
        195,
        257,
        149,
        188,
        79,
        40,
        270,
        144,
        52,
        63,
        138,
        22,
        222,
        45,
        286,
        135,
        273,
        243,
        163,
        234,
        3,
        226,
        269,
        19,
        106,
        104,
        90,
        293,
        290,
        34,
        160,
        2,
        58,
        157,
        140,
        170,
        27,
        147,
        197,
        111,
        21,
        217,
        4,
        134,
        108,
        114,
        113,
        240,
        238,
        42,
        285,
        29,
        172,
        215,
        225,
        283,
        258,
        205,
        125,
        261,
        271,
        227,
        150,
        80,
        99,
        246,
        203,
        191,
        105,
        248,
        32,
        155,
        237,
        6,
        242,
        272,
        83,
        86,
        251,
        164,
        95,
        221,
        281,
        208,
        214,
        13,
        249,
        213,
        162,
        204,
        274,
        185,
        223,
        229,
        192,
        35,
        91,
        72,
        250,
        20,
        262,
        252,
        15,
        280,
        47,
        121,
        275,
        224,
        31,
        50,
        51,
        68,
        75,
        219,
        57,
        55,
        87,
        288,
        23,
        98,
        287,
        115,
        179,
        88,
        81,
        292,
        220,
        266,
        5,
        279,
        161,
        284,
        218,
        139,
        101,
        143,
        56,
        103,
        109,
        8,
        77,
        110,
        239,
        33,
        276,
        26,
        120,
        298,
        180,
        294,
        177,
        129,
        291,
        9,
        132,
        228,
        61,
        198,
        282,
        207,
        137,
        59,
        232,
        152,
        60,
        25,
        124,
        16,
        46,
        24,
        53,
        133,
        181,
        153,
        76,
        156,
        244,
        216,
        265,
        38,
        194,
        263,
        141,
        10,
        92,
        187,
        289,
        247,
        97,
        102,
        89,
        145,
        167,
        182,
        299,
        233,
        100,
        37,
        296,
        130,
        66,
        127,
        165
    ],
    "Global Optimum": 0,
    "Algorithm": "Genetic algorithm",
    "Parameters": {
        "population": 30,
        "offspring": 30,
        "mutation probability": 0.0033333333333333335,
        "crossover probability": 0.9
    },
    "Fitness": 296396,
    "Solution": [
        65,
        245,
        73,
        93,
        201,
        148,
        28,
        11,
        158,
        116,
        210,
        1,
        43,
        196,
        230,
        36,
        44,
        64,
        264,
        186,
        176,
        131,
        107,
        96,
        178,
        169,
        142,
        202,
        146,
        78,
        84,
        17,
        48,
        39,
        190,
        54,
        236,
        128,
        254,
        166,
        67,
        278,
        30,
        267,
        112,
        175,
        85,
        260,
        174,
        118,
        256,
        12,
        211,
        49,
        82,
        277,
        184,
        255,
        69,
        253,
        0,
        122,
        259,
        183,
        295,
        189,
        18,
        209,
        94,
        70,
        71,
        7,
        136,
        151,
        154,
        119,
        171,
        173,
        297,
        268,
        14,
        159,
        231,
        41,
        74,
        241,
        193,
        117,
        62,
        123,
        126,
        206,
        200,
        212,
        168,
        235,
        199,
        195,
        257,
        149,
        188,
        79,
        40,
        270,
        144,
        52,
        63,
        138,
        22,
        222,
        45,
        286,
        135,
        273,
        243,
        163,
        234,
        3,
        226,
        269,
        19,
        106,
        104,
        90,
        293,
        290,
        34,
        160,
        2,
        58,
        157,
        140,
        170,
        27,
        147,
        197,
        111,
        21,
        217,
        4,
        134,
        108,
        114,
        113,
        240,
        238,
        42,
        285,
        29,
        172,
        215,
        225,
        283,
        258,
        205,
        125,
        261,
        271,
        227,
        150,
        80,
        99,
        246,
        203,
        191,
        105,
        248,
        32,
        155,
        237,
        6,
        242,
        272,
        83,
        86,
        251,
        164,
        95,
        221,
        281,
        208,
        214,
        13,
        249,
        213,
        162,
        204,
        274,
        185,
        223,
        229,
        192,
        35,
        91,
        72,
        250,
        20,
        262,
        252,
        15,
        280,
        47,
        121,
        275,
        224,
        31,
        50,
        51,
        68,
        75,
        219,
        57,
        55,
        87,
        288,
        23,
        98,
        287,
        115,
        179,
        88,
        81,
        292,
        220,
        266,
        5,
        279,
        161,
        284,
        218,
        139,
        101,
        143,
        56,
        103,
        109,
        8,
        77,
        110,
        239,
        33,
        276,
        26,
        120,
        298,
        180,
        294,
        177,
        129,
        291,
        9,
        132,
        228,
        61,
        198,
        282,
        207,
        137,
        59,
        232,
        152,
        60,
        25,
        124,
        16,
        46,
        24,
        53,
        133,
        181,
        153,
        76,
        156,
        244,
        216,
        265,
        38,
        194,
        263,
        141,
        10,
        92,
        187,
        289,
        247,
        97,
        102,
        89,
        145,
        167,
        182,
        299,
        233,
        100,
        37,
        296,
        130,
        66,
        127,
        165
    ],
    "Nb of functions evaluations": 200010,
    "Computational time in seconds": 321.0957148075104,
    "Stopping criterion in evaluations": 200000
}